Route #1: 597 598 599 600 541 542 543 544 545 546 547 548 549 550 551 552 553 554 555 556 557 558 559 560 561 562 563 564 565 566 567 568 569 570 571 572 573 574 575 576 577 578 579 580 581 521
Route #2: 405 465 525 526 527 528 529 530 531 532 533 534 535 523 524 522 582 583 584 585 586 587 588 589 590 591 592 593 594 595 596 536 537 538 539 540 481 482 483 484 485 486 487 488 489 429
Route #3: 312 372 432 433 431 430 490 491 492 493 494 495 496 497 498 499 500 501 502 503 504 505 506 507 508 509 510 511 512 513 514 515 516 517 518 519 520 460 459 461 462 463 464 404 403 344
Route #4: 316 317 318 319 320 321 322 323 313 314 315 375 376 377 378 379 380 381 382 383 384 385 386 387 388 389 390 391 392 393 394 395 335 334 333 332 324 325 326 327 328 329 330 331
Route #5: 249 310 311 309 369 370 371 373 374 434 435 436 437 438 439 440 441 442 443 444 445 446 447 448 449 450 451 452 453 454 455 456 457 458 398 396 397 399 400 401 402 342 343 284
Route #6: 286 285 345 346 348 349 350 347 407 408 409 410 406 466 467 468 469 470 471 472 473 474 475 476 477 478 479 480 421 422 423 424 425 426 427 428 368 366 367 307 306 308 248 188
Route #7: 228 287 288 289 290 291 292 293 294 354 355 356 357 358 359 360 353 352 351 411 412 413 414 415 416 417 418 419 420 361 362 363 364 365 305 304 303 302 301 241 242 243 244 245 246 247
Route #8: 72 132 131 191 192 193 194 195 196 197 198 199 200 201 202 203 204 205 206 207 208 209 210 211 212 213 214 215 216 217 218 219 221 222 223 224 225 226 227 167 163 164 165 166
Route #9: 68 128 129 189 190 250 251 252 253 254 255 256 257 258 259 260 261 262 263 264 265 266 267 268 269 270 271 272 273 274 275 276 336 337 338 339 340 341 281 282 283 277 278 279 280 220 160 100
Route #10: 11 71 69 70 130 133 134 135 136 137 138 139 140 141 142 143 144 145 146 147 148 149 150 151 152 153 154 155 156 157 158 159 161 162 102 101 103 104 105 106 107 108 109 49
Route #11: 52 111 112 113 110 170 171 172 173 174 175 168 169 229 230 231 232 233 234 235 295 296 297 298 299 300 240 181 182 183 184 185 186 187 127 180 121 122 123 124 125 126 66 67
Route #12: 17 18 19 20 21 16 15 14 13 73 74 75 76 77 78 79 80 81 82 83 84 85 86 87 88 89 90 91 92 93 94 95 96 97 98 99 39 40
Route #13: 56 57 58 59 60 1 2 3 4 55 54 114 115 116 117 177 176 236 237 238 239 179 178 118 119 120 61 62 63 64 65 5 6 7 8 9 10 12
Route #14: 22 23 24 25 26 27 28 29 30 31 32 33 34 35 36 37 38 41 42 43 44 45 46 47 48 50 51 53
Cost 14556.80627566887